products = {"Car loan", "Savings", "Mortgage", "Pension"};

productValue = [100, 200, 300, 400];
budgetShare = [0.6, 0.1, 0.2, 0.1];

availableBudget = 500;       

channels = {<"gift" 20.0 0.20>  
            <"newsletter" 15.0 0.05>
            <"seminar" 23.0 0.30>};